%SETS
JOBS     = 1..10;
MACHINES = 1..20;
SPEED    = 5;

time        = array3d(JOBS,MACHINES,1..SPEED,[14, 5, 3, 3, 2, 77, 26, 18, 15, 13, 39, 13, 9, 8, 7, 52, 17, 12, 10, 9, 4, 1, 1, 1, 1, 2, 1, 1, 1, 1, 23, 8, 5, 4, 4, 4, 1, 1, 1, 1, 34, 11, 8, 6, 6, 13, 4, 3, 2, 2, 19, 6, 4, 3, 3, 71, 24, 17, 14, 12, 19, 6, 4, 3, 3, 2, 1, 1, 1, 1, 4, 1, 1, 1, 1, 20, 7, 4, 4, 3, 19, 6, 4, 3, 3, 26, 9, 6, 5, 4, 13, 4, 3, 2, 2, 27, 9, 6, 5, 4, 13, 4, 3, 2, 2, 25, 8, 6, 5, 4, 37, 13, 9, 7, 6, 5, 1, 1, 1, 1, 12, 4, 2, 2, 2, 18, 6, 4, 3, 3, 30, 10, 7, 6, 5, 7, 2, 1, 1, 1, 20, 7, 5, 4, 3, 25, 8, 6, 5, 4, 58, 20, 14, 11, 10, 11, 4, 2, 2, 2, 26, 9, 6, 5, 4, 5, 1, 1, 1, 1, 17, 6, 4, 3, 3, 5, 1, 1, 1, 1, 64, 22, 15, 13, 11, 14, 5, 3, 2, 2, 45, 15, 11, 9, 8, 13, 4, 3, 2, 2, 60, 21, 14, 12, 10, 13, 4, 3, 2, 2, 10, 3, 2, 2, 1, 21, 7, 5, 4, 3, 48, 16, 11, 9, 8, 51, 17, 12, 10, 9, 23, 8, 5, 4, 4, 2, 1, 1, 1, 1, 23, 8, 5, 4, 4, 7, 2, 1, 1, 1, 34, 11, 8, 6, 6, 58, 20, 14, 11, 10, 18, 6, 4, 3, 3, 23, 8, 5, 4, 4, 1, 1, 1, 1, 1, 20, 6, 4, 4, 3, 3, 1, 1, 1, 1, 24, 8, 6, 5, 4, 11, 4, 2, 2, 2, 37, 13, 9, 7, 6, 1, 1, 1, 1, 1, 3, 1, 1, 1, 1, 29, 10, 7, 6, 5, 18, 6, 4, 3, 3, 21, 7, 5, 4, 3, 48, 16, 11, 9, 8, 17, 5, 4, 3, 3, 42, 14, 10, 8, 7, 18, 6, 4, 3, 3, 67, 23, 16, 13, 12, 28, 9, 6, 5, 5, 4, 1, 1, 1, 1, 11, 4, 2, 2, 2, 51, 17, 12, 10, 9, 11, 3, 2, 2, 2, 5, 1, 1, 1, 1, 16, 5, 4, 3, 2, 12, 4, 3, 2, 2, 24, 8, 6, 5, 4, 14, 5, 3, 3, 2, 7, 2, 1, 1, 1, 13, 4, 3, 2, 2, 14, 4, 3, 2, 2, 60, 20, 14, 12, 10, 100, 34, 24, 20, 18, 25, 8, 6, 5, 4, 2, 1, 1, 1, 1, 34, 11, 8, 6, 6, 29, 10, 7, 5, 5, 45, 15, 11, 9, 8, 11, 3, 2, 2, 1, 1, 1, 1, 1, 1, 24, 8, 5, 4, 4, 3, 1, 1, 1, 1, 36, 12, 9, 7, 6, 40, 14, 10, 8, 7, 13, 4, 3, 2, 2, 74, 25, 18, 15, 13, 4, 1, 1, 1, 1, 73, 25, 18, 15, 13, 16, 5, 3, 3, 2, 37, 12, 9, 7, 6, 36, 12, 8, 7, 6, 102, 35, 25, 20, 18, 93, 32, 22, 19, 16, 1, 1, 1, 1, 1, 1, 1, 1, 1, 1, 20, 7, 4, 4, 3, 1, 1, 1, 1, 1, 27, 9, 6, 5, 4, 19, 6, 4, 4, 3, 28, 9, 6, 5, 5, 15, 5, 3, 3, 2, 8, 2, 2, 1, 1, 77, 26, 18, 15, 13, 33, 11, 8, 6, 6, 1, 1, 1, 1, 1, 2, 1, 1, 1, 1, 25, 8, 6, 5, 4, 8, 3, 2, 1, 1, 13, 4, 3, 2, 2, 39, 13, 9, 8, 7, 11, 3, 2, 2, 2, 67, 23, 16, 13, 12, 32, 11, 8, 6, 5, 20, 7, 5, 4, 3, 5, 1, 1, 1, 1, 13, 4, 3, 2, 2, 37, 12, 9, 7, 6, 121, 41, 29, 24, 21, 1, 1, 1, 1, 1, 3, 1, 1, 1, 1, 34, 12, 8, 7, 6, 46, 16, 11, 9, 8, 2, 1, 1, 1, 1, 45, 15, 11, 9, 8, 39, 13, 9, 8, 7, 30, 10, 7, 6, 5, 10, 3, 2, 2, 1, 15, 5, 3, 3, 2, 11, 4, 2, 2, 2, 47, 16, 11, 9, 8, 10, 3, 2, 2, 1, 10, 3, 2, 2, 1, 70, 24, 17, 14, 12, 65, 22, 16, 13, 11, 89, 30, 21, 18, 16, 42, 14, 10, 8, 7, 2, 1, 1, 1, 1, 2, 1, 1, 1, 1, 21, 7, 5, 4, 3, 50, 17, 12, 10, 9, 55, 19, 13, 11, 10, 26, 9, 6, 5, 4, 80, 27, 19, 16, 14, 4, 1, 1, 1, 1, 6, 2, 1, 1, 1, 10, 3, 2, 2, 1, 7, 2, 1, 1, 1, 9, 3, 2, 1, 1, 3, 1, 1, 1, 1, 12, 4, 2, 2, 2, 1, 1, 1, 1, 1, 19, 6, 4, 4, 3, 75, 26, 18, 15, 13, 15, 5, 3, 3, 2, 25, 8, 6, 5, 4, 24, 8, 5, 4, 4, 70, 24, 17, 14, 12, 34, 11, 8, 6, 6, 45, 15, 11, 9, 8, 10, 3, 2, 2, 1, 61, 21, 15, 12, 11, 5, 1, 1, 1, 1, 13, 4, 3, 2, 2, 34, 11, 8, 7, 6, 10, 3, 2, 2, 1, 56, 19, 13, 11, 10, 51, 17, 12, 10, 9, 4, 1, 1, 1, 1, 6, 2, 1, 1, 1, 1, 1, 1, 1, 1, 50, 17, 12, 10, 9, 10, 3, 2, 2, 1, 12, 4, 3, 2, 2, 8, 2, 1, 1, 1, 3, 1, 1, 1, 1, 15, 5, 3, 3, 2, 6, 2, 1, 1, 1, 21, 7, 5, 4, 3, 5, 2, 1, 1, 1, 18, 6, 4, 3, 3, 76, 26, 18, 15, 13, 12, 4, 2, 2, 2, 79, 27, 19, 16, 14, 1, 1, 1, 1, 1, 20, 7, 5, 4, 3, 23, 8, 5, 4, 4, 84, 29, 20, 17, 15, 67, 23, 16, 13, 12]);
energy      = array3d(JOBS,MACHINES,1..SPEED,[86, 95, 97, 97, 98, 46, 77, 83, 86, 87, 67, 87, 91, 92, 93, 59, 84, 88, 90, 91, 96, 99, 99, 99, 99, 98, 99, 99, 99, 99, 79, 92, 95, 96, 96, 96, 99, 99, 99, 99, 71, 89, 92, 94, 94, 87, 96, 97, 98, 98, 82, 94, 96, 97, 97, 49, 78, 84, 86, 88, 82, 94, 96, 97, 97, 98, 99, 99, 99, 99, 96, 99, 99, 99, 99, 81, 93, 96, 96, 97, 82, 94, 96, 97, 97, 77, 91, 94, 95, 96, 87, 96, 97, 98, 98, 76, 91, 94, 95, 96, 87, 96, 97, 98, 98, 77, 92, 94, 95, 96, 69, 87, 91, 93, 94, 95, 99, 99, 99, 99, 88, 96, 98, 98, 98, 83, 94, 96, 97, 97, 74, 90, 93, 94, 95, 93, 98, 99, 99, 99, 81, 93, 95, 96, 97, 77, 92, 94, 95, 96, 55, 81, 86, 89, 90, 89, 96, 98, 98, 98, 77, 91, 94, 95, 96, 95, 99, 99, 99, 99, 84, 94, 96, 97, 97, 95, 99, 99, 99, 99, 52, 80, 86, 87, 89, 86, 95, 97, 98, 98, 63, 86, 89, 91, 92, 87, 96, 97, 98, 98, 54, 81, 86, 88, 90, 87, 96, 97, 98, 98, 90, 97, 98, 98, 99, 81, 93, 95, 96, 97, 61, 85, 89, 91, 92, 60, 84, 88, 90, 91, 79, 92, 95, 96, 96, 98, 99, 99, 99, 99, 79, 92, 95, 96, 96, 93, 98, 99, 99, 99, 71, 89, 92, 94, 94, 55, 81, 86, 89, 90, 83, 94, 96, 97, 97, 79, 92, 95, 96, 96, 99, 99, 99, 99, 99, 81, 94, 96, 96, 97, 97, 99, 99, 99, 99, 78, 92, 94, 95, 96, 89, 96, 98, 98, 98, 69, 87, 91, 93, 94, 99, 99, 99, 99, 99, 97, 99, 99, 99, 99, 74, 90, 93, 94, 95, 83, 94, 96, 97, 97, 81, 93, 95, 96, 97, 61, 85, 89, 91, 92, 84, 95, 96, 97, 97, 65, 86, 90, 92, 93, 83, 94, 96, 97, 97, 51, 79, 85, 87, 88, 75, 91, 94, 95, 95, 96, 99, 99, 99, 99, 89, 96, 98, 98, 98, 60, 84, 88, 90, 91, 89, 97, 98, 98, 98, 95, 99, 99, 99, 99, 85, 95, 96, 97, 98, 88, 96, 97, 98, 98, 78, 92, 94, 95, 96, 86, 95, 97, 97, 98, 93, 98, 99, 99, 99, 87, 96, 97, 98, 98, 86, 96, 97, 98, 98, 54, 81, 86, 88, 90, 36, 71, 78, 81, 83, 77, 92, 94, 95, 96, 98, 99, 99, 99, 99, 71, 89, 92, 94, 94, 74, 90, 93, 95, 95, 63, 86, 89, 91, 92, 89, 97, 98, 98, 99, 99, 99, 99, 99, 99, 78, 92, 95, 96, 96, 97, 99, 99, 99, 99, 69, 88, 91, 93, 94, 67, 86, 90, 92, 93, 87, 96, 97, 98, 98, 47, 77, 83, 86, 87, 96, 99, 99, 99, 99, 48, 77, 83, 86, 87, 85, 95, 97, 97, 98, 69, 88, 91, 93, 94, 69, 88, 92, 93, 94, 36, 70, 77, 81, 83, 39, 72, 80, 82, 85, 99, 99, 99, 99, 99, 99, 99, 99, 99, 99, 81, 93, 96, 96, 97, 99, 99, 99, 99, 99, 76, 91, 94, 95, 96, 82, 94, 96, 96, 97, 75, 91, 94, 95, 95, 86, 95, 97, 97, 98, 92, 98, 98, 99, 99, 46, 77, 83, 86, 87, 71, 89, 92, 94, 94, 99, 99, 99, 99, 99, 98, 99, 99, 99, 99, 77, 92, 94, 95, 96, 92, 97, 98, 99, 99, 87, 96, 97, 98, 98, 67, 87, 91, 92, 93, 89, 97, 98, 98, 98, 51, 79, 85, 87, 88, 72, 89, 92, 94, 95, 81, 93, 95, 96, 97, 95, 99, 99, 99, 99, 87, 96, 97, 98, 98, 69, 88, 91, 93, 94, 29, 66, 74, 78, 81, 99, 99, 99, 99, 99, 97, 99, 99, 99, 99, 71, 88, 92, 93, 94, 63, 85, 89, 91, 92, 98, 99, 99, 99, 99, 63, 86, 89, 91, 92, 67, 87, 91, 92, 93, 74, 90, 93, 94, 95, 90, 97, 98, 98, 99, 86, 95, 97, 97, 98, 89, 96, 98, 98, 98, 62, 85, 89, 91, 92, 90, 97, 98, 98, 99, 90, 97, 98, 98, 99, 49, 78, 84, 86, 88, 52, 80, 85, 87, 89, 41, 74, 81, 83, 85, 65, 86, 90, 92, 93, 98, 99, 99, 99, 99, 98, 99, 99, 99, 99, 81, 93, 95, 96, 97, 60, 84, 88, 90, 91, 57, 82, 87, 89, 90, 77, 91, 94, 95, 96, 44, 76, 82, 85, 86, 96, 99, 99, 99, 99, 94, 98, 99, 99, 99, 90, 97, 98, 98, 99, 93, 98, 99, 99, 99, 91, 97, 98, 99, 99, 97, 99, 99, 99, 99, 88, 96, 98, 98, 98, 99, 99, 99, 99, 99, 82, 94, 96, 96, 97, 47, 77, 83, 86, 87, 86, 95, 97, 97, 98, 77, 92, 94, 95, 96, 78, 92, 95, 96, 96, 49, 78, 84, 86, 88, 71, 89, 92, 94, 94, 63, 86, 89, 91, 92, 90, 97, 98, 98, 99, 54, 81, 86, 88, 89, 95, 99, 99, 99, 99, 87, 96, 97, 98, 98, 71, 89, 92, 93, 94, 90, 97, 98, 98, 99, 57, 82, 87, 89, 90, 60, 84, 88, 90, 91, 96, 99, 99, 99, 99, 94, 98, 99, 99, 99, 99, 99, 99, 99, 99, 60, 84, 88, 90, 91, 90, 97, 98, 98, 99, 88, 96, 97, 98, 98, 92, 98, 99, 99, 99, 97, 99, 99, 99, 99, 86, 95, 97, 97, 98, 94, 98, 99, 99, 99, 81, 93, 95, 96, 97, 95, 98, 99, 99, 99, 83, 94, 96, 97, 97, 46, 77, 83, 86, 87, 88, 96, 98, 98, 98, 45, 76, 82, 85, 86, 99, 99, 99, 99, 99, 81, 93, 95, 96, 97, 79, 92, 95, 96, 96, 43, 74, 81, 84, 86, 51, 79, 85, 87, 88]);
precedence  = array2d(JOBS,MACHINES,[14, 10, 13, 8, 5, 9, 7, 2, 3, 15, 11, 1, 16, 4, 0, 17, 19, 12, 6, 18, 19, 18, 6, 14, 12, 7, 13, 0, 15, 11, 5, 10, 16, 17, 2, 9, 4, 1, 3, 8, 7, 3, 1, 10, 18, 15, 16, 9, 11, 19, 14, 4, 6, 8, 0, 2, 5, 12, 13, 17, 19, 15, 10, 12, 6, 1, 5, 7, 8, 14, 11, 3, 13, 17, 4, 18, 2, 16, 9, 0, 11, 14, 19, 4, 8, 18, 2, 10, 12, 13, 1, 7, 15, 17, 16, 6, 9, 3, 0, 5, 1, 5, 11, 10, 13, 19, 12, 9, 3, 16, 18, 15, 7, 0, 8, 4, 14, 6, 2, 17, 5, 7, 8, 10, 11, 9, 16, 19, 13, 6, 15, 1, 4, 17, 2, 0, 18, 3, 14, 12, 1, 10, 19, 5, 11, 17, 12, 13, 16, 18, 6, 15, 0, 9, 7, 8, 4, 14, 3, 2, 9, 4, 12, 18, 2, 6, 0, 16, 17, 11, 15, 8, 5, 1, 3, 14, 19, 13, 7, 10, 1, 18, 3, 2, 14, 19, 5, 8, 13, 11, 9, 6, 17, 4, 10, 15, 12, 7, 16, 0]);
releaseDate = [10, 90, 100, 100, 80, 10, 90, 10, 0, 60];
dueDate     = [153, 254, 261, 251, 286, 180, 271, 215, 210, 200];